(set-info :source |printed by MathSAT|)
(declare-fun call_firefly.ite8 () Int)
(declare-fun call_firefly.ite36 () Int)
(declare-fun call_firefly.ite7 () Int)
(declare-fun call_firefly.garde8 () Bool)
(declare-fun call_firefly.ite18 () Int)
(declare-fun call_firefly.ite () Int)
(declare-fun call_firefly.ite29 () Int)
(declare-fun call_firefly.dirty () Int)
(declare-fun call_firefly.garde3 () Bool)
(declare-fun call_firefly.ite24 () Int)
(declare-fun call_firefly.flby3 () Int)
(declare-fun call_firefly.invalid () Int)
(declare-fun invalid () Int)
(declare-fun param_e7 () Bool)
(declare-fun call_firefly.ite6 () Int)
(declare-fun param_e5 () Bool)
(declare-fun call_firefly.ite30 () Int)
(declare-fun call_firefly.mem_invalid () Int)
(declare-fun call_First.First () Int)
(declare-fun call_firefly.flby4 () Int)
(declare-fun call_firefly.ite25 () Int)
(declare-fun call_First.flby () Int)
(declare-fun call_firefly.ite9 () Int)
(declare-fun procs () Int)
(declare-fun call_firefly.ite40 () Int)
(declare-fun param_e6 () Bool)
(declare-fun call_firefly.ite2 () Int)
(declare-fun call_firefly.ite4 () Int)
(declare-fun env () Bool)
(declare-fun call_Sofar.flby () Bool)
(declare-fun param_e4 () Bool)
(declare-fun call_firefly.ite20 () Int)
(declare-fun param_e2 () Bool)
(declare-fun call_firefly.ite11 () Int)
(declare-fun call_firefly.ite35 () Int)
(declare-fun call_firefly.ite33 () Int)
(declare-fun call_excludes8.excludes () Bool)
(declare-fun call_firefly.ite10 () Int)
(declare-fun call_firefly.ite14 () Int)
(declare-fun call_firefly.ite39 () Int)
(declare-fun call_firefly.ite32 () Int)
(declare-fun call_firefly.flby5 () Int)
(declare-fun call_firefly.ite16 () Int)
(declare-fun param_e8 () Bool)
(declare-fun _OK_ () Bool)
(declare-fun call_firefly.ite37 () Int)
(declare-fun param_i_invalid () Int)
(declare-fun call_firefly.ite27 () Int)
(declare-fun call_firefly.ite23 () Int)
(declare-fun call_firefly.flby () Int)
(declare-fun param_e3 () Bool)
(declare-fun call_firefly.ite21 () Int)
(declare-fun call_firefly.ite28 () Int)
(declare-fun call_firefly.ite26 () Int)
(declare-fun call_firefly.ite5 () Int)
(declare-fun call_firefly.ite38 () Int)
(declare-fun call_firefly.ite22 () Int)
(declare-fun param_e1 () Bool)
(declare-fun call_firefly.ite3 () Int)
(declare-fun call_firefly.garde6 () Bool)
(declare-fun call_firefly.exclusive () Int)
(declare-fun call_Sofar.Sofar () Bool)
(declare-fun call_firefly.ite31 () Int)
(declare-fun call_firefly.ite19 () Int)
(declare-fun dirty () Int)
(declare-fun call_firefly.ite17 () Int)
(declare-fun call_firefly.flby2 () Int)
(declare-fun call_firefly.ite15 () Int)
(declare-fun call_firefly.shared () Int)
(declare-fun call_firefly.ite34 () Int)
(declare-fun call_firefly.ite13 () Int)
(declare-fun call_firefly.ite12 () Int)
(declare-fun shared () Int)
(declare-fun exclusive () Int)
(define-fun .def_1151 () Bool (= call_First.flby call_First.First))
(define-fun .def_1149 () Bool (= call_Sofar.flby call_Sofar.Sofar))
(define-fun .def_952 () Bool (not param_e2))
(define-fun .def_933 () Bool (not param_e1))
(define-fun .def_1097 () Bool (and .def_933 .def_952))
(define-fun .def_980 () Bool (not param_e3))
(define-fun .def_1098 () Bool (and .def_980 .def_1097))
(define-fun .def_1005 () Bool (not param_e4))
(define-fun .def_1099 () Bool (and .def_1005 .def_1098))
(define-fun .def_1022 () Bool (not param_e5))
(define-fun .def_1100 () Bool (and .def_1022 .def_1099))
(define-fun .def_1040 () Bool (not param_e6))
(define-fun .def_1101 () Bool (and .def_1040 .def_1100))
(define-fun .def_862 () Bool (not param_e7))
(define-fun .def_1102 () Bool (and .def_862 .def_1101))
(define-fun .def_846 () Bool (not param_e8))
(define-fun .def_1138 () Bool (and .def_846 .def_1102))
(define-fun .def_1131 () Bool (and param_e1 .def_952))
(define-fun .def_1132 () Bool (and .def_980 .def_1131))
(define-fun .def_1133 () Bool (and .def_1005 .def_1132))
(define-fun .def_1134 () Bool (and .def_1022 .def_1133))
(define-fun .def_1135 () Bool (and .def_1040 .def_1134))
(define-fun .def_1136 () Bool (and .def_862 .def_1135))
(define-fun .def_1137 () Bool (and .def_846 .def_1136))
(define-fun .def_1139 () Bool (or .def_1137 .def_1138))
(define-fun .def_1124 () Bool (and .def_933 param_e2))
(define-fun .def_1125 () Bool (and .def_980 .def_1124))
(define-fun .def_1126 () Bool (and .def_1005 .def_1125))
(define-fun .def_1127 () Bool (and .def_1022 .def_1126))
(define-fun .def_1128 () Bool (and .def_1040 .def_1127))
(define-fun .def_1129 () Bool (and .def_862 .def_1128))
(define-fun .def_1130 () Bool (and .def_846 .def_1129))
(define-fun .def_1140 () Bool (or .def_1130 .def_1139))
(define-fun .def_1118 () Bool (and param_e3 .def_1097))
(define-fun .def_1119 () Bool (and .def_1005 .def_1118))
(define-fun .def_1120 () Bool (and .def_1022 .def_1119))
(define-fun .def_1121 () Bool (and .def_1040 .def_1120))
(define-fun .def_1122 () Bool (and .def_862 .def_1121))
(define-fun .def_1123 () Bool (and .def_846 .def_1122))
(define-fun .def_1141 () Bool (or .def_1123 .def_1140))
(define-fun .def_1113 () Bool (and param_e4 .def_1098))
(define-fun .def_1114 () Bool (and .def_1022 .def_1113))
(define-fun .def_1115 () Bool (and .def_1040 .def_1114))
(define-fun .def_1116 () Bool (and .def_862 .def_1115))
(define-fun .def_1117 () Bool (and .def_846 .def_1116))
(define-fun .def_1142 () Bool (or .def_1117 .def_1141))
(define-fun .def_1109 () Bool (and param_e5 .def_1099))
(define-fun .def_1110 () Bool (and .def_1040 .def_1109))
(define-fun .def_1111 () Bool (and .def_862 .def_1110))
(define-fun .def_1112 () Bool (and .def_846 .def_1111))
(define-fun .def_1143 () Bool (or .def_1112 .def_1142))
(define-fun .def_1106 () Bool (and param_e6 .def_1100))
(define-fun .def_1107 () Bool (and .def_862 .def_1106))
(define-fun .def_1108 () Bool (and .def_846 .def_1107))
(define-fun .def_1144 () Bool (or .def_1108 .def_1143))
(define-fun .def_1104 () Bool (and param_e7 .def_1101))
(define-fun .def_1105 () Bool (and .def_846 .def_1104))
(define-fun .def_1145 () Bool (or .def_1105 .def_1144))
(define-fun .def_1103 () Bool (and param_e8 .def_1102))
(define-fun .def_1146 () Bool (or .def_1103 .def_1145))
(define-fun .def_1147 () Bool (= call_excludes8.excludes .def_1146))
(define-fun .def_1095 () Bool (= call_firefly.flby call_firefly.mem_invalid))
(define-fun .def_1093 () Bool (= call_firefly.flby5 call_firefly.shared))
(define-fun .def_1091 () Bool (= call_firefly.flby4 call_firefly.exclusive))
(define-fun .def_1089 () Bool (= call_firefly.flby3 call_firefly.dirty))
(define-fun .def_1087 () Bool (= call_firefly.flby2 call_firefly.invalid))
(define-fun .def_1085 () Bool (= dirty call_firefly.dirty))
(define-fun .def_1082 () Bool (= invalid call_firefly.invalid))
(define-fun .def_1073 () Int (+ invalid dirty))
(define-fun .def_1067 () Int (* (- 1) procs))
(define-fun .def_1074 () Int (+ .def_1067 .def_1073))
(define-fun .def_1075 () Int (+ shared .def_1074))
(define-fun .def_1076 () Int (+ exclusive .def_1075))
(define-fun .def_1077 () Bool (<= .def_1076 0))
(define-fun .def_1065 () Bool (not env))
(define-fun .def_1078 () Bool (or .def_1065 .def_1077))
(define-fun .def_1079 () Bool (= _OK_ .def_1078))
(define-fun .def_1060 () Bool (= call_firefly.ite36 call_firefly.ite37))
(define-fun .def_1061 () Bool (or param_e7 .def_1060))
(define-fun .def_1057 () Bool (= call_firefly.ite37 call_firefly.ite34))
(define-fun .def_1058 () Bool (or .def_862 .def_1057))
(define-fun .def_1053 () Bool (= call_firefly.ite8 call_firefly.ite5))
(define-fun .def_1054 () Bool (or .def_862 .def_1053))
(define-fun .def_1050 () Bool (= call_firefly.ite7 call_firefly.ite8))
(define-fun .def_1051 () Bool (or param_e7 .def_1050))
(define-fun .def_1055 () Bool (and .def_1051 .def_1054))
(define-fun .def_1059 () Bool (and .def_1055 .def_1058))
(define-fun .def_1062 () Bool (and .def_1059 .def_1061))
(define-fun .def_1046 () Bool (= call_firefly.ite17 call_firefly.ite18))
(define-fun .def_1047 () Bool (or param_e6 .def_1046))
(define-fun .def_1043 () Bool (= call_firefly.ite15 call_firefly.ite18))
(define-fun .def_1044 () Bool (or .def_1040 .def_1043))
(define-fun .def_1039 () Bool (= call_firefly.ite9 call_firefly.ite4))
(define-fun .def_1041 () Bool (or .def_1039 .def_1040))
(define-fun .def_1035 () Bool (= call_firefly.ite9 call_firefly.ite8))
(define-fun .def_1037 () Bool (or .def_1035 param_e6))
(define-fun .def_1042 () Bool (and .def_1037 .def_1041))
(define-fun .def_1045 () Bool (and .def_1042 .def_1044))
(define-fun .def_1048 () Bool (and .def_1045 .def_1047))
(define-fun .def_1030 () Bool (= call_firefly.ite38 call_firefly.ite37))
(define-fun .def_1031 () Bool (or param_e5 .def_1030))
(define-fun .def_1026 () Bool (= call_firefly.ite38 call_firefly.ite33))
(define-fun .def_1027 () Bool (or .def_1022 .def_1026))
(define-fun .def_1021 () Bool (= call_firefly.ite27 call_firefly.ite24))
(define-fun .def_1023 () Bool (or .def_1021 .def_1022))
(define-fun .def_1017 () Bool (= call_firefly.ite26 call_firefly.ite27))
(define-fun .def_1019 () Bool (or .def_1017 param_e5))
(define-fun .def_1024 () Bool (and .def_1019 .def_1023))
(define-fun .def_1028 () Bool (and .def_1024 .def_1027))
(define-fun .def_1032 () Bool (and .def_1028 .def_1031))
(define-fun .def_1013 () Bool (= call_firefly.ite28 call_firefly.ite27))
(define-fun .def_1014 () Bool (or param_e4 .def_1013))
(define-fun .def_1009 () Bool (= call_firefly.ite28 call_firefly.ite23))
(define-fun .def_1010 () Bool (or .def_1005 .def_1009))
(define-fun .def_1004 () Bool (= call_firefly.ite19 call_firefly.ite14))
(define-fun .def_1006 () Bool (or .def_1004 .def_1005))
(define-fun .def_1000 () Bool (= call_firefly.ite19 call_firefly.ite18))
(define-fun .def_1002 () Bool (or .def_1000 param_e4))
(define-fun .def_1007 () Bool (and .def_1002 .def_1006))
(define-fun .def_1011 () Bool (and .def_1007 .def_1010))
(define-fun .def_1015 () Bool (and .def_1011 .def_1014))
(define-fun .def_995 () Bool (= call_firefly.ite39 call_firefly.ite38))
(define-fun .def_996 () Bool (or param_e3 .def_995))
(define-fun .def_991 () Bool (= call_firefly.ite39 call_firefly.ite32))
(define-fun .def_992 () Bool (or .def_980 .def_991))
(define-fun .def_987 () Bool (= call_firefly.ite29 call_firefly.ite28))
(define-fun .def_988 () Bool (or param_e3 .def_987))
(define-fun .def_983 () Bool (= call_firefly.ite22 call_firefly.ite29))
(define-fun .def_984 () Bool (or .def_980 .def_983))
(define-fun .def_979 () Bool (= call_firefly.ite10 call_firefly.ite3))
(define-fun .def_981 () Bool (or .def_979 .def_980))
(define-fun .def_975 () Bool (= call_firefly.ite10 call_firefly.ite9))
(define-fun .def_977 () Bool (or .def_975 param_e3))
(define-fun .def_982 () Bool (and .def_977 .def_981))
(define-fun .def_985 () Bool (and .def_982 .def_984))
(define-fun .def_989 () Bool (and .def_985 .def_988))
(define-fun .def_993 () Bool (and .def_989 .def_992))
(define-fun .def_997 () Bool (and .def_993 .def_996))
(define-fun .def_970 () Bool (= call_firefly.ite40 call_firefly.ite39))
(define-fun .def_971 () Bool (or param_e2 .def_970))
(define-fun .def_966 () Bool (= call_firefly.ite31 call_firefly.ite40))
(define-fun .def_967 () Bool (or .def_952 .def_966))
(define-fun .def_961 () Bool (= call_firefly.ite20 call_firefly.ite19))
(define-fun .def_962 () Bool (or param_e2 .def_961))
(define-fun .def_957 () Bool (= call_firefly.ite13 call_firefly.ite20))
(define-fun .def_958 () Bool (or .def_952 .def_957))
(define-fun .def_951 () Bool (= call_firefly.ite11 call_firefly.ite2))
(define-fun .def_953 () Bool (or .def_951 .def_952))
(define-fun .def_947 () Bool (= call_firefly.ite11 call_firefly.ite10))
(define-fun .def_949 () Bool (or .def_947 param_e2))
(define-fun .def_954 () Bool (and .def_949 .def_953))
(define-fun .def_959 () Bool (and .def_954 .def_958))
(define-fun .def_963 () Bool (and .def_959 .def_962))
(define-fun .def_968 () Bool (and .def_963 .def_967))
(define-fun .def_972 () Bool (and .def_968 .def_971))
(define-fun .def_942 () Bool (= call_firefly.ite30 call_firefly.ite29))
(define-fun .def_943 () Bool (or param_e1 .def_942))
(define-fun .def_938 () Bool (= call_firefly.ite21 call_firefly.ite30))
(define-fun .def_939 () Bool (or .def_933 .def_938))
(define-fun .def_932 () Bool (= call_firefly.ite12 call_firefly.ite))
(define-fun .def_934 () Bool (or .def_932 .def_933))
(define-fun .def_928 () Bool (= call_firefly.ite12 call_firefly.ite11))
(define-fun .def_930 () Bool (or .def_928 param_e1))
(define-fun .def_935 () Bool (and .def_930 .def_934))
(define-fun .def_940 () Bool (and .def_935 .def_939))
(define-fun .def_944 () Bool (and .def_940 .def_943))
(define-fun .def_924 () Bool (= procs call_First.First))
(define-fun .def_920 () Bool (= env call_Sofar.Sofar))
(define-fun .def_916 () Bool (= shared call_firefly.shared))
(define-fun .def_913 () Bool (= exclusive call_firefly.exclusive))
(define-fun .def_917 () Bool (and .def_913 .def_916))
(define-fun .def_921 () Bool (and .def_917 .def_920))
(define-fun .def_925 () Bool (and .def_921 .def_924))
(define-fun .def_945 () Bool (and .def_925 .def_944))
(define-fun .def_973 () Bool (and .def_945 .def_972))
(define-fun .def_998 () Bool (and .def_973 .def_997))
(define-fun .def_1016 () Bool (and .def_998 .def_1015))
(define-fun .def_1033 () Bool (and .def_1016 .def_1032))
(define-fun .def_1049 () Bool (and .def_1033 .def_1048))
(define-fun .def_1063 () Bool (and .def_1049 .def_1062))
(define-fun .def_1080 () Bool (and .def_1063 .def_1079))
(define-fun .def_1083 () Bool (and .def_1080 .def_1082))
(define-fun .def_1086 () Bool (and .def_1083 .def_1085))
(define-fun .def_1088 () Bool (and .def_1086 .def_1087))
(define-fun .def_1090 () Bool (and .def_1088 .def_1089))
(define-fun .def_1092 () Bool (and .def_1090 .def_1091))
(define-fun .def_1094 () Bool (and .def_1092 .def_1093))
(define-fun .def_1096 () Bool (and .def_1094 .def_1095))
(define-fun .def_1148 () Bool (and .def_1096 .def_1147))
(define-fun .def_1150 () Bool (and .def_1148 .def_1149))
(define-fun .def_1152 () Bool (and .def_1150 .def_1151))
(define-fun .def_909 () Bool (= param_i_invalid call_First.flby))
(define-fun .def_902 () Bool (<= 5 param_i_invalid))
(define-fun .def_903 () Bool (not .def_902))
(define-fun .def_899 () Bool (<= 0 param_i_invalid))
(define-fun .def_901 () Bool (and .def_899 call_excludes8.excludes))
(define-fun .def_904 () Bool (and .def_901 .def_903))
(define-fun .def_906 () Bool (= .def_904 call_Sofar.flby))
(define-fun .def_897 () Bool (= call_firefly.flby5 0))
(define-fun .def_894 () Bool (= call_firefly.flby4 0))
(define-fun .def_891 () Bool (= call_firefly.flby3 0))
(define-fun .def_888 () Bool (= call_firefly.flby2 call_firefly.mem_invalid))
(define-fun .def_884 () Bool (= param_i_invalid call_firefly.flby))
(define-fun .def_879 () Bool (= call_firefly.ite25 0))
(define-fun .def_878 () Bool (not call_firefly.garde8))
(define-fun .def_880 () Bool (or .def_878 .def_879))
(define-fun .def_874 () Bool (= call_firefly.ite15 1))
(define-fun .def_872 () Bool (not call_firefly.garde6))
(define-fun .def_875 () Bool (or .def_872 .def_874))
(define-fun .def_868 () Bool (= call_firefly.ite22 0))
(define-fun .def_866 () Bool (not call_firefly.garde3))
(define-fun .def_869 () Bool (or .def_866 .def_868))
(define-fun .def_860 () Bool (= call_firefly.ite16 call_firefly.ite17))
(define-fun .def_863 () Bool (or .def_860 .def_862))
(define-fun .def_855 () Bool (= call_firefly.ite35 call_firefly.ite36))
(define-fun .def_856 () Bool (or .def_846 .def_855))
(define-fun .def_850 () Bool (= call_firefly.ite6 call_firefly.ite7))
(define-fun .def_851 () Bool (or .def_846 .def_850))
(define-fun .def_844 () Bool (= call_firefly.ite25 call_firefly.ite26))
(define-fun .def_847 () Bool (or .def_844 .def_846))
(define-fun .def_852 () Bool (and .def_847 .def_851))
(define-fun .def_857 () Bool (and .def_852 .def_856))
(define-fun .def_864 () Bool (and .def_857 .def_863))
(define-fun .def_870 () Bool (and .def_864 .def_869))
(define-fun .def_876 () Bool (and .def_870 .def_875))
(define-fun .def_881 () Bool (and .def_876 .def_880))
(define-fun .def_885 () Bool (and .def_881 .def_884))
(define-fun .def_889 () Bool (and .def_885 .def_888))
(define-fun .def_892 () Bool (and .def_889 .def_891))
(define-fun .def_895 () Bool (and .def_892 .def_894))
(define-fun .def_898 () Bool (and .def_895 .def_897))
(define-fun .def_907 () Bool (and .def_898 .def_906))
(define-fun .def_910 () Bool (and .def_907 .def_909))
(define-fun .def_1153 () Bool (and .def_910 .def_1152))
(assert .def_1153)
